NAME Model5
ROWS
 N  OBJ
 E  c0      
 E  c1      
 E  c2      
 E  c3      
 L  c4      
 L  c5      
 L  c6      
 L  c7      
 G  c8      
 G  c9      
 G  c10     
 G  c11     
 G  c12     
 G  c13     
 G  c14     
 G  c15     
 G  c16     
 G  c17     
 G  c18     
 G  c19     
 G  c20     
 G  c21     
 G  c22     
 G  c23     
 G  c24     
 G  c25     
 G  c26     
COLUMNS
    MARKER    'MARKER'                 'INTORG'
    y[0,0,0]  c0        1
    y[0,0,0]  c4        -1000000
    y[0,0,0]  c17       -2
    y[0,0,0]  c26       -4
    y[0,1,1]  c1        1
    y[0,1,1]  c5        -1000000
    y[0,1,1]  c8        -1000000
    y[0,1,1]  c9        -1000000
    y[0,1,1]  c10       -1000000
    y[0,1,1]  c11       -1000000
    y[0,1,1]  c19       -1
    y[0,1,1]  c24       -5
    y[1,0,1]  c2        1
    y[1,0,1]  c6        -1000000
    y[1,0,1]  c8        -1000000
    y[1,0,1]  c9        -1000000
    y[1,0,1]  c12       -1000000
    y[1,0,1]  c13       -1000000
    y[1,0,1]  c14       -1000000
    y[1,0,1]  c15       -1000000
    y[1,0,1]  c21       -3
    y[1,0,1]  c26       -4
    y[1,1,1]  c3        1
    y[1,1,1]  c7        -1000000
    y[1,1,1]  c10       -1000000
    y[1,1,1]  c11       -1000000
    y[1,1,1]  c12       -1000000
    y[1,1,1]  c13       -1000000
    y[1,1,1]  c14       -1000000
    y[1,1,1]  c15       -1000000
    y[1,1,1]  c23       -3
    y[1,1,1]  c25       -3
    x[0,0,0,0]  OBJ       0
    x[0,0,0,1]  OBJ       0
    x[0,0,1,0]  OBJ       0
    x[0,0,1,1]  OBJ       0
    x[0,1,0,0]  OBJ       0
    x[0,1,0,1]  OBJ       0
    x[0,1,1,0]  c8        -1000000
    x[0,1,1,0]  c9        1000000
    x[0,1,1,1]  c10       -1000000
    x[0,1,1,1]  c11       1000000
    x[1,0,0,0]  OBJ       0
    x[1,0,0,1]  OBJ       0
    x[1,0,1,0]  OBJ       0
    x[1,0,1,1]  c12       -1000000
    x[1,0,1,1]  c13       1000000
    x[1,1,0,0]  OBJ       0
    x[1,1,0,1]  OBJ       0
    x[1,1,1,0]  c14       -1000000
    x[1,1,1,0]  c15       1000000
    x[1,1,1,1]  OBJ       0
    MARKER    'MARKER'                 'INTEND'
    s[0,0,0]  c4        1
    s[0,0,0]  c16       1
    s[0,0,0]  c17       1
    s[0,0,0]  c24       1
    s[0,0,0]  c26       -1
    s[0,1,1]  c5        1
    s[0,1,1]  c8        1
    s[0,1,1]  c9        -1
    s[0,1,1]  c10       1
    s[0,1,1]  c11       -1
    s[0,1,1]  c18       1
    s[0,1,1]  c19       1
    s[0,1,1]  c24       -1
    s[1,0,1]  c6        1
    s[1,0,1]  c8        -1
    s[1,0,1]  c9        1
    s[1,0,1]  c12       1
    s[1,0,1]  c13       -1
    s[1,0,1]  c14       -1
    s[1,0,1]  c15       1
    s[1,0,1]  c20       1
    s[1,0,1]  c21       1
    s[1,0,1]  c25       1
    s[1,0,1]  c26       -1
    s[1,1,1]  c7        1
    s[1,1,1]  c10       -1
    s[1,1,1]  c11       1
    s[1,1,1]  c12       -1
    s[1,1,1]  c13       1
    s[1,1,1]  c14       1
    s[1,1,1]  c15       -1
    s[1,1,1]  c22       1
    s[1,1,1]  c23       1
    s[1,1,1]  c25       -1
    MARKER    'MARKER'                 'INTORG'
    Z_FO      OBJ       1
    Z_FO      c26       1
    MARKER    'MARKER'                 'INTEND'
RHS
    RHS1      c0        1
    RHS1      c1        1
    RHS1      c2        1
    RHS1      c3        1
    RHS1      c8        -2999981
    RHS1      c9        -1999990
    RHS1      c10       -2999985
    RHS1      c11       -1999980
    RHS1      c12       -2999982
    RHS1      c13       -1999991
    RHS1      c14       -2999991
    RHS1      c15       -1999982
BOUNDS
 BV BND1      y[0,0,0]
 BV BND1      y[0,1,1]
 BV BND1      y[1,0,1]
 BV BND1      y[1,1,1]
 BV BND1      x[0,0,0,0]
 BV BND1      x[0,0,0,1]
 BV BND1      x[0,0,1,0]
 BV BND1      x[0,0,1,1]
 BV BND1      x[0,1,0,0]
 BV BND1      x[0,1,0,1]
 BV BND1      x[0,1,1,0]
 BV BND1      x[0,1,1,1]
 BV BND1      x[1,0,0,0]
 BV BND1      x[1,0,0,1]
 BV BND1      x[1,0,1,0]
 BV BND1      x[1,0,1,1]
 BV BND1      x[1,1,0,0]
 BV BND1      x[1,1,0,1]
 BV BND1      x[1,1,1,0]
 BV BND1      x[1,1,1,1]
 LI BND1      Z_FO      0
ENDATA
